p cnf 124 365
c t mc
3 -1 0
3 -2 0
1 2 -3 0
-6 -4 0
-6 -5 0
4 5 6 0
9 7 0
9 8 0
-7 -8 -9 0
6 9 -10 0
-6 -9 -10 0
6 -9 10 0
-6 9 10 0
10 -11 -12 0
-10 11 -12 0
10 11 12 0
-10 -11 12 0
-13 -3 0
-13 12 0
3 -12 13 0
-16 14 0
-16 -15 0
-14 15 16 0
-17 -4 0
-17 -16 0
4 16 17 0
19 18 0
19 -11 0
-18 11 -19 0
19 -15 -20 0
-19 15 -20 0
19 15 20 0
-19 -15 20 0
20 -21 -22 0
-20 21 -22 0
20 21 22 0
-20 -21 22 0
-23 17 0
-23 22 0
-17 -22 23 0
-24 -23 0
-24 7 0
23 -7 24 0
-27 -25 0
-27 26 0
25 -26 27 0
-28 -27 0
-28 -19 0
27 19 28 0
29 -5 0
29 -7 0
5 7 -29 0
-30 29 0
-30 -15 0
-29 15 30 0
-31 -28 0
-31 30 0
28 -30 31 0
-32 -24 0
-32 -31 0
24 31 32 0
-33 13 0
-33 32 0
-13 -32 33 0
-36 34 0
-36 -35 0
-34 35 36 0
-37 -18 0
-37 36 0
18 -36 37 0
-38 -33 0
-38 -37 0
33 37 38 0
40 1 0
40 39 0
-1 -39 -40 0
42 4 0
42 41 0
-4 -41 -42 0
44 -43 0
44 25 0
43 -25 -44 0
-45 -41 0
-45 44 0
41 -44 45 0
45 35 -46 0
-45 -35 -46 0
45 -35 46 0
-45 35 46 0
-42 -46 -47 0
42 46 -47 0
-42 46 47 0
42 -46 47 0
48 -49 -50 0
-48 49 -50 0
48 49 50 0
-48 -49 50 0
-51 -41 0
-51 -50 0
41 50 51 0
34 2 -52 0
-34 -2 -52 0
34 -2 52 0
-34 2 52 0
53 -52 0
53 -7 0
52 7 -53 0
-51 -53 -54 0
51 53 -54 0
-51 53 54 0
51 -53 54 0
55 47 0
55 -54 0
-47 54 -55 0
40 -55 -56 0
-40 55 -56 0
40 55 56 0
-40 -55 56 0
-57 38 0
-57 56 0
-38 -56 57 0
58 -14 0
58 41 0
14 -41 -58 0
-59 57 0
-59 -58 0
-57 58 59 0
-17 27 -60 0
17 -27 -60 0
-17 -27 60 0
17 27 60 0
-61 -59 0
-61 60 0
59 -60 61 0
-21 -62 0
21 -62 0
-64 -63 0
-64 44 0
63 -44 64 0
62 64 -65 0
-62 -64 -65 0
62 -64 65 0
-62 64 65 0
-67 43 0
-67 66 0
-43 -66 67 0
-68 1 0
-68 -21 0
-1 21 68 0
49 -68 -69 0
-49 68 -69 0
49 68 69 0
-49 -68 69 0
-70 -67 0
-70 69 0
67 -69 70 0
-71 -28 0
-71 -15 0
28 15 71 0
-72 -70 0
-72 71 0
70 -71 72 0
73 -65 0
73 72 0
65 -72 -73 0
-74 -28 0
-74 -6 0
28 6 74 0
75 -74 0
75 5 0
74 -5 -75 0
-76 8 0
-76 2 0
-8 -2 76 0
-76 -77 -78 0
76 77 -78 0
-76 77 78 0
76 -77 78 0
-79 75 0
-79 -78 0
-75 78 79 0
73 79 -80 0
-73 -79 -80 0
73 -79 80 0
-73 79 80 0
61 80 -81 0
-61 -80 -81 0
61 -80 81 0
-61 80 81 0
-82 49 0
-82 -7 0
-49 7 82 0
83 68 0
83 44 0
-68 -44 -83 0
84 -27 0
84 35 0
27 -35 -84 0
85 83 0
85 -84 0
-83 84 -85 0
-86 82 0
-86 -85 0
-82 85 86 0
87 81 0
87 -86 0
-81 86 -87 0
30 -4 -88 0
-30 4 -88 0
30 4 88 0
-30 -4 88 0
89 -88 0
89 7 0
88 -7 -89 0
-90 -63 0
-90 8 0
63 -8 90 0
91 44 0
91 45 0
-44 -45 -91 0
-92 -90 0
-92 -91 0
90 91 92 0
-93 -89 0
-93 92 0
89 -92 93 0
-94 70 0
-94 66 0
-70 -66 94 0
-95 7 0
-95 -77 0
-7 77 95 0
41 -21 -96 0
-41 21 -96 0
41 21 96 0
-41 -21 96 0
-43 6 -97 0
43 -6 -97 0
-43 -6 97 0
43 6 97 0
-97 -29 -98 0
97 29 -98 0
-97 29 98 0
97 -29 98 0
-99 -96 0
-99 98 0
96 -98 99 0
-100 95 0
-100 99 0
-95 -99 100 0
-101 -94 0
-101 100 0
94 -100 101 0
-15 -16 -102 0
15 16 -102 0
-15 16 102 0
15 -16 102 0
101 102 -103 0
-101 -102 -103 0
101 -102 103 0
-101 102 103 0
104 -66 0
104 -35 0
66 35 -104 0
-105 52 0
-105 104 0
-52 -104 105 0
-43 20 -106 0
43 -20 -106 0
-43 -20 106 0
43 20 106 0
-108 -43 0
-108 -107 0
43 107 108 0
-109 106 0
-109 -108 0
-106 108 109 0
105 109 -110 0
-105 -109 -110 0
105 -109 110 0
-105 109 110 0
-111 -26 0
-111 -18 0
26 18 111 0
112 8 0
112 -5 0
-8 5 -112 0
113 111 0
113 112 0
-111 -112 -113 0
-16 114 -115 0
16 -114 -115 0
-16 -114 115 0
16 114 115 0
116 -6 0
116 115 0
6 -115 -116 0
-117 113 0
-117 116 0
-113 -116 117 0
-118 -110 0
-118 -117 0
110 117 118 0
119 26 -120 0
-119 -26 -120 0
119 -26 120 0
-119 26 120 0
121 -118 0
121 -120 0
118 120 -121 0
122 103 0
122 -121 0
-103 121 -122 0
-123 93 0
-123 -122 0
-93 122 123 0
-124 87 0
-124 123 0
-87 -123 124 0
107 77 118 -93 59 -1 0
76 85 -63 0
78 8 -114 -19 0
90 -51 -23 0
27 37 -80 41 104 -66 0
10 -123 44 94 0
107 2 -79 -81 -103 82 0
42 64 110 -113 -49 107 109 29 0
116 56 98 29 -5 -69 72 0
93 -67 95 0
67 -61 -100 78 -19 12 0
-63 68 77 51 82 115 0
-49 1 16 -62 85 -35 -15 -94 0
6 -30 53 117 61 -41 0
-12 -81 109 35 -80 0
97 -61 21 -44 -57 -96 -50 59 -102 0
-106 21 39 72 38 0
-73 -101 -70 0
74 66 -95 -64 -34 0
-41 -1 121 -119 0
-62 -46 -52 36 23 -59 -72 38 37 0
-96 -45 115 0
51 2 6 56 49 109 0
-56 -44 71 -61 25 0
61 90 -49 0
34 -91 -53 0
-41 15 28 0
111 -86 56 -66 0
91 99 45 -30 0
124 -67 59 -34 -1 -117 120 -115 0
58 32 -1 5 -14 0
-20 -54 -76 44 -21 0
28 101 -88 -30 0
58 36 -23 121 0
97 -88 24 38 0
69 108 -27 -94 3 37 -82 98 0
23 7 -15 0
79 35 -26 45 -27 -31 -18 -22 29 0
-55 -84 100 -45 0
-90 -12 16 21 95 50 0
24 -55 -112 -74 99 -6 -78 0
-46 -30 -114 -77 111 12 67 -105 121 0
-86 71 -63 0
87 -25 16 0
50 98 37 30 -57 -88 0
124 0
